<number of tasks>
20

<cycle time>
1000

<order strength>
0,174


<task times>
1 382
2 282
3 452
4 539
5 519
6 557
7 382
8 625
9 575
10 608
11 526
12 522
13 563
14 580
15 379
16 573
17 465
18 442
19 619
20 648

<precedence relations>
1,5
2,6
2,7
2,10
3,9
4,8
5,13
6,11
7,12
10,14
10,15
11,17
12,16
14,18
16,19
17,20

<end>
